
Value of objective function: 0

Actual values of the variables:
pL1_div_from_law                0
comp_pos0                       0
comp_neg0                       0
comp_pos1                       0
comp_neg1                       0
comp_pos2                       0
comp_neg2                       0
comp_pos3                       0
comp_neg3                       0
comp_pos4                       0
comp_neg4                       0
comp_pos5                       0
comp_neg5                       0
comp_pos6                       0
comp_neg6                       0
comp_pos7                       0
comp_neg7                       0
comp_pos8                       0
comp_neg8                       0
comp_pos9                       0
comp_neg9                       0
comp_pos10                      0
comp_neg10                      0
comp_pos11                      0
comp_neg11                      0
comp_pos12                      0
comp_neg12                      0
comp_pos13                      0
comp_neg13                      0
z_c0_t0               1.32138e+10
p0_c0_t0              4.95289e+09
p1_c0_t0               1.0423e+08
p2_c0_t0              6.94951e+09
p3_c0_t0              1.20721e+09
diff0                           0
normdiff0                       0
z_c0_t1               1.47752e+10
p0_c0_t1              4.30379e+09
p1_c0_t1              1.16885e+08
p2_c0_t1              8.00944e+09
p3_c0_t1              2.34508e+09
diff1                           0
normdiff1                       0
z_c1_t0               1.65566e+10
p0_c1_t0              5.00772e+09
p1_c1_t0              1.33926e+08
p2_c1_t0              1.05869e+10
p3_c1_t0              8.28085e+08
diff2                           0
normdiff2                       0
z_c1_t1               1.94959e+10
p0_c1_t1              5.09725e+09
p1_c1_t1              1.90527e+08
p2_c1_t1              1.33704e+10
p3_c1_t1              8.37715e+08
diff3                           0
normdiff3                       0
z_c2_t0               7.24754e+09
p0_c2_t0              1.70858e+09
p1_c2_t0              5.46506e+07
p2_c2_t0               4.7523e+09
p3_c2_t0              7.32011e+08
diff4                           0
normdiff4                       0
z_c2_t1               7.97123e+09
p0_c2_t1              1.38701e+09
p1_c2_t1              6.38795e+07
p2_c2_t1              5.49251e+09
p3_c2_t1              1.02783e+09
diff5                           0
normdiff5                       0
z_c3_t0               1.22612e+10
p0_c3_t0              3.09123e+09
p1_c3_t0              9.34316e+07
p2_c3_t0              7.36527e+09
p3_c3_t0              1.71126e+09
diff6                           0
normdiff6                       0
z_c3_t1               1.42798e+10
p0_c3_t1              3.49648e+09
p1_c3_t1              9.56852e+07
p2_c3_t1              7.34073e+09
p3_c3_t1              3.34688e+09
diff7                           0
normdiff7                       0
z_c4_t0               7.97197e+09
p0_c4_t0              1.36439e+09
p1_c4_t0              1.04551e+08
p2_c4_t0              6.17835e+09
p3_c4_t0              3.24681e+08
diff8                           0
normdiff8                       0
z_c4_t1                8.9819e+09
p0_c4_t1              1.41084e+09
p1_c4_t1              9.62536e+07
p2_c4_t1              7.08718e+09
p3_c4_t1              3.87633e+08
diff9                           0
normdiff9                       0
z_c5_t0               1.00642e+10
p0_c5_t0              2.40605e+09
p1_c5_t0              8.82169e+07
p2_c5_t0              7.43473e+09
p3_c5_t0              1.35154e+08
diff10                          0
normdiff10                      0
z_c5_t1                1.2016e+10
p0_c5_t1              1.77532e+09
p1_c5_t1              8.82549e+07
p2_c5_t1              8.99769e+09
p3_c5_t1              1.15474e+09
diff11                          0
normdiff11                      0
z_c6_t0               1.81204e+10
p0_c6_t0              4.39326e+09
p1_c6_t0              1.11448e+08
p2_c6_t0              1.28171e+10
p3_c6_t0              7.98569e+08
diff12                          0
normdiff12                      0
z_c6_t1               2.06345e+10
p0_c6_t1              4.72395e+09
p1_c6_t1              1.03172e+08
p2_c6_t1              1.52655e+10
p3_c6_t1              5.41895e+08
diff13                          0
normdiff13                      0
